problems/csplib-prob015/SchursLemma-models/noch/O2/lingeling/model_1_3-4-9-solution000001.eprime-solution
language ESSENCE' 1.0

letting boxes_PartitionAsSet_ExplicitR5_ExplicitVarSizeWithMarker_Marker be [1, 2, 3, 3; int(1..4)]
letting boxes_PartitionAsSet_ExplicitR5_ExplicitVarSizeWithMarker_Values be
        [[8, 1, 1, 1, 1, 1, 1, 1, 1; int(1..9)], [1, 4, 1, 1, 1, 1, 1, 1, 1; int(1..9)],
         [2, 3, 7, 1, 1, 1, 1, 1, 1; int(1..9)], [5, 6, 9, 1, 1, 1, 1, 1, 1; int(1..9)]; int(1..4)]
