problems/csplib-prob015/SchursLemma-models/noch/O2/lingeling/model_1_3-4-9-solution000001.solution
language Essence 1.3

letting boxes be partition({1, 4}, {2, 3, 7}, {5, 6, 9}, {8})
